cost: 816.81
Route 1:           0   11   40   37   29   23    5    0
Route 2:           0   14    4   38   50   41   33   24    0
Route 3:           0   17   10    2   48   43    0
Route 4:           0   22    3   42   27   32   31   20    0
Route 5:           0   36    6    1   19    0
Route 6:           0   44   35   13    8    0
Route 7:           0   45   25    9   49    0
Route 8:           0   46   16    7   39   18   15   28   12    0
Route 9:           0   47   34   30   21   26    0
